p cnf 1271
-5 -105
-6 -111
-7 -114
-8 -117
-9 -120
-10 -123
-11 -126
-12 -129
-13 -132
-14 -135
-15 -138
-16 -141
-17 -144
-18 -147
-19 -150
-20 -153
-21 -156
-22 -159
-23 -162
-24 -165
-25 -168
-26 -171
-27 -174
-28 -177
-29 -180
-30 -183
-31 -186
-32 -189
-33 -192
-34 -195
-35 -198
-36 -201
-37 -204
-38 -207
-39 -210
-40 -213
-41 -216
-42 -219
-43 -222
-44 -225
-45 -228
-46 -231
-47 -234
-48 -237
-49 -240
-50 -243
-51 -246
-52 -249
-53 -252
-54 -255
-55 -259
-56 -263
-57 -267
-58 -271
-59 -275
-60 -279
-61 -283
-62 -287
-63 -291
-64 -295
-65 -299
-66 -303
-67 -307
-68 -311
-69 -315
-70 -319
-71 -323
-72 -327
-73 -331
-74 -335
-75 -339
-76 -343
-77 -347
-78 -351
-79 -355
-80 -359
-81 -363
-82 -367
-83 -371
-84 -375
-85 -379
-86 -383
-87 -387
-88 -391
-89 -395
-90 -399
-91 -403
-92 -407
-93 -411
-94 -415
-95 -419
-96 -423
-97 -427
-98 -431
-99 -435
-100 -439
-101 -443
-102 -3
-102 4
3 -4 102
-103 1
-103 102
-1 -102 103
-104 5
-104 -102
-5 102 104
-105 -103
-105 -104
103 104 105
-106 1
-106 -5
-1 5 106
-107 102
-107 106
-102 -106 107
-108 53
-108 107
-53 -107 108
-109 6
-109 -107
-6 107 109
-110 -108
-110 -109
108 109 110
-111 4
-111 110
-4 -110 111
-112 6
-112 107
-6 -107 112
-113 7
-113 -107
-7 107 113
-114 -112
-114 -113
112 113 114
-115 7
-115 107
-7 -107 115
-116 8
-116 -107
-8 107 116
-117 -115
-117 -116
115 116 117
-118 8
-118 107
-8 -107 118
-119 9
-119 -107
-9 107 119
-120 -118
-120 -119
118 119 120
-121 9
-121 107
-9 -107 121
-122 10
-122 -107
-10 107 122
-123 -121
-123 -122
121 122 123
-124 10
-124 107
-10 -107 124
-125 11
-125 -107
-11 107 125
-126 -124
-126 -125
124 125 126
-127 11
-127 107
-11 -107 127
-128 12
-128 -107
-12 107 128
-129 -127
-129 -128
127 128 129
-130 12
-130 107
-12 -107 130
-131 13
-131 -107
-13 107 131
-132 -130
-132 -131
130 131 132
-133 13
-133 107
-13 -107 133
-134 14
-134 -107
-14 107 134
-135 -133
-135 -134
133 134 135
-136 14
-136 107
-14 -107 136
-137 15
-137 -107
-15 107 137
-138 -136
-138 -137
136 137 138
-139 15
-139 107
-15 -107 139
-140 16
-140 -107
-16 107 140
-141 -139
-141 -140
139 140 141
-142 16
-142 107
-16 -107 142
-143 17
-143 -107
-17 107 143
-144 -142
-144 -143
142 143 144
-145 17
-145 107
-17 -107 145
-146 18
-146 -107
-18 107 146
-147 -145
-147 -146
145 146 147
-148 18
-148 107
-18 -107 148
-149 19
-149 -107
-19 107 149
-150 -148
-150 -149
148 149 150
-151 19
-151 107
-19 -107 151
-152 20
-152 -107
-20 107 152
-153 -151
-153 -152
151 152 153
-154 20
-154 107
-20 -107 154
-155 21
-155 -107
-21 107 155
-156 -154
-156 -155
154 155 156
-157 21
-157 107
-21 -107 157
-158 22
-158 -107
-22 107 158
-159 -157
-159 -158
157 158 159
-160 22
-160 107
-22 -107 160
-161 23
-161 -107
-23 107 161
-162 -160
-162 -161
160 161 162
-163 23
-163 107
-23 -107 163
-164 24
-164 -107
-24 107 164
-165 -163
-165 -164
163 164 165
-166 24
-166 107
-24 -107 166
-167 25
-167 -107
-25 107 167
-168 -166
-168 -167
166 167 168
-169 25
-169 107
-25 -107 169
-170 26
-170 -107
-26 107 170
-171 -169
-171 -170
169 170 171
-172 26
-172 107
-26 -107 172
-173 27
-173 -107
-27 107 173
-174 -172
-174 -173
172 173 174
-175 27
-175 107
-27 -107 175
-176 28
-176 -107
-28 107 176
-177 -175
-177 -176
175 176 177
-178 28
-178 107
-28 -107 178
-179 29
-179 -107
-29 107 179
-180 -178
-180 -179
178 179 180
-181 29
-181 107
-29 -107 181
-182 30
-182 -107
-30 107 182
-183 -181
-183 -182
181 182 183
-184 30
-184 107
-30 -107 184
-185 31
-185 -107
-31 107 185
-186 -184
-186 -185
184 185 186
-187 31
-187 107
-31 -107 187
-188 32
-188 -107
-32 107 188
-189 -187
-189 -188
187 188 189
-190 32
-190 107
-32 -107 190
-191 33
-191 -107
-33 107 191
-192 -190
-192 -191
190 191 192
-193 33
-193 107
-33 -107 193
-194 34
-194 -107
-34 107 194
-195 -193
-195 -194
193 194 195
-196 34
-196 107
-34 -107 196
-197 35
-197 -107
-35 107 197
-198 -196
-198 -197
196 197 198
-199 35
-199 107
-35 -107 199
-200 36
-200 -107
-36 107 200
-201 -199
-201 -200
199 200 201
-202 36
-202 107
-36 -107 202
-203 37
-203 -107
-37 107 203
-204 -202
-204 -203
202 203 204
-205 37
-205 107
-37 -107 205
-206 38
-206 -107
-38 107 206
-207 -205
-207 -206
205 206 207
-208 38
-208 107
-38 -107 208
-209 39
-209 -107
-39 107 209
-210 -208
-210 -209
208 209 210
-211 39
-211 107
-39 -107 211
-212 40
-212 -107
-40 107 212
-213 -211
-213 -212
211 212 213
-214 40
-214 107
-40 -107 214
-215 41
-215 -107
-41 107 215
-216 -214
-216 -215
214 215 216
-217 41
-217 107
-41 -107 217
-218 42
-218 -107
-42 107 218
-219 -217
-219 -218
217 218 219
-220 42
-220 107
-42 -107 220
-221 43
-221 -107
-43 107 221
-222 -220
-222 -221
220 221 222
-223 43
-223 107
-43 -107 223
-224 44
-224 -107
-44 107 224
-225 -223
-225 -224
223 224 225
-226 44
-226 107
-44 -107 226
-227 45
-227 -107
-45 107 227
-228 -226
-228 -227
226 227 228
-229 45
-229 107
-45 -107 229
-230 46
-230 -107
-46 107 230
-231 -229
-231 -230
229 230 231
-232 46
-232 107
-46 -107 232
-233 47
-233 -107
-47 107 233
-234 -232
-234 -233
232 233 234
-235 47
-235 107
-47 -107 235
-236 48
-236 -107
-48 107 236
-237 -235
-237 -236
235 236 237
-238 48
-238 107
-48 -107 238
-239 49
-239 -107
-49 107 239
-240 -238
-240 -239
238 239 240
-241 49
-241 107
-49 -107 241
-242 50
-242 -107
-50 107 242
-243 -241
-243 -242
241 242 243
-244 50
-244 107
-50 -107 244
-245 51
-245 -107
-51 107 245
-246 -244
-246 -245
244 245 246
-247 51
-247 107
-51 -107 247
-248 52
-248 -107
-52 107 248
-249 -247
-249 -248
247 248 249
-250 52
-250 107
-52 -107 250
-251 53
-251 -107
-53 107 251
-252 -250
-252 -251
250 251 252
-253 2
-253 112
-2 -112 253
-254 54
-254 -112
-54 112 254
-255 -253
-255 -254
253 254 255
-256 55
-256 -112
-55 112 256
-257 2
-257 115
-2 -115 257
-258 -115
-258 256
115 -256 258
-259 -257
-259 -258
257 258 259
-260 56
-260 -112
-56 112 260
-261 2
-261 118
-2 -118 261
-262 -118
-262 260
118 -260 262
-263 -261
-263 -262
261 262 263
-264 57
-264 -112
-57 112 264
-265 2
-265 121
-2 -121 265
-266 -121
-266 264
121 -264 266
-267 -265
-267 -266
265 266 267
-268 58
-268 -112
-58 112 268
-269 2
-269 124
-2 -124 269
-270 -124
-270 268
124 -268 270
-271 -269
-271 -270
269 270 271
-272 59
-272 -112
-59 112 272
-273 2
-273 127
-2 -127 273
-274 -127
-274 272
127 -272 274
-275 -273
-275 -274
273 274 275
-276 60
-276 -112
-60 112 276
-277 2
-277 130
-2 -130 277
-278 -130
-278 276
130 -276 278
-279 -277
-279 -278
277 278 279
-280 61
-280 -112
-61 112 280
-281 2
-281 133
-2 -133 281
-282 -133
-282 280
133 -280 282
-283 -281
-283 -282
281 282 283
-284 62
-284 -112
-62 112 284
-285 2
-285 136
-2 -136 285
-286 -136
-286 284
136 -284 286
-287 -285
-287 -286
285 286 287
-288 63
-288 -112
-63 112 288
-289 2
-289 139
-2 -139 289
-290 -139
-290 288
139 -288 290
-291 -289
-291 -290
289 290 291
-292 64
-292 -112
-64 112 292
-293 2
-293 142
-2 -142 293
-294 -142
-294 292
142 -292 294
-295 -293
-295 -294
293 294 295
-296 65
-296 -112
-65 112 296
-297 2
-297 145
-2 -145 297
-298 -145
-298 296
145 -296 298
-299 -297
-299 -298
297 298 299
-300 66
-300 -112
-66 112 300
-301 2
-301 148
-2 -148 301
-302 -148
-302 300
148 -300 302
-303 -301
-303 -302
301 302 303
-304 67
-304 -112
-67 112 304
-305 2
-305 151
-2 -151 305
-306 -151
-306 304
151 -304 306
-307 -305
-307 -306
305 306 307
-308 68
-308 -112
-68 112 308
-309 2
-309 154
-2 -154 309
-310 -154
-310 308
154 -308 310
-311 -309
-311 -310
309 310 311
-312 69
-312 -112
-69 112 312
-313 2
-313 157
-2 -157 313
-314 -157
-314 312
157 -312 314
-315 -313
-315 -314
313 314 315
-316 70
-316 -112
-70 112 316
-317 2
-317 160
-2 -160 317
-318 -160
-318 316
160 -316 318
-319 -317
-319 -318
317 318 319
-320 71
-320 -112
-71 112 320
-321 2
-321 163
-2 -163 321
-322 -163
-322 320
163 -320 322
-323 -321
-323 -322
321 322 323
-324 72
-324 -112
-72 112 324
-325 2
-325 166
-2 -166 325
-326 -166
-326 324
166 -324 326
-327 -325
-327 -326
325 326 327
-328 73
-328 -112
-73 112 328
-329 2
-329 169
-2 -169 329
-330 -169
-330 328
169 -328 330
-331 -329
-331 -330
329 330 331
-332 74
-332 -112
-74 112 332
-333 2
-333 172
-2 -172 333
-334 -172
-334 332
172 -332 334
-335 -333
-335 -334
333 334 335
-336 75
-336 -112
-75 112 336
-337 2
-337 175
-2 -175 337
-338 -175
-338 336
175 -336 338
-339 -337
-339 -338
337 338 339
-340 76
-340 -112
-76 112 340
-341 2
-341 178
-2 -178 341
-342 -178
-342 340
178 -340 342
-343 -341
-343 -342
341 342 343
-344 77
-344 -112
-77 112 344
-345 2
-345 181
-2 -181 345
-346 -181
-346 344
181 -344 346
-347 -345
-347 -346
345 346 347
-348 78
-348 -112
-78 112 348
-349 2
-349 184
-2 -184 349
-350 -184
-350 348
184 -348 350
-351 -349
-351 -350
349 350 351
-352 79
-352 -112
-79 112 352
-353 2
-353 187
-2 -187 353
-354 -187
-354 352
187 -352 354
-355 -353
-355 -354
353 354 355
-356 80
-356 -112
-80 112 356
-357 2
-357 190
-2 -190 357
-358 -190
-358 356
190 -356 358
-359 -357
-359 -358
357 358 359
-360 81
-360 -112
-81 112 360
-361 2
-361 193
-2 -193 361
-362 -193
-362 360
193 -360 362
-363 -361
-363 -362
361 362 363
-364 82
-364 -112
-82 112 364
-365 2
-365 196
-2 -196 365
-366 -196
-366 364
196 -364 366
-367 -365
-367 -366
365 366 367
-368 83
-368 -112
-83 112 368
-369 2
-369 199
-2 -199 369
-370 -199
-370 368
199 -368 370
-371 -369
-371 -370
369 370 371
-372 84
-372 -112
-84 112 372
-373 2
-373 202
-2 -202 373
-374 -202
-374 372
202 -372 374
-375 -373
-375 -374
373 374 375
-376 85
-376 -112
-85 112 376
-377 2
-377 205
-2 -205 377
-378 -205
-378 376
205 -376 378
-379 -377
-379 -378
377 378 379
-380 86
-380 -112
-86 112 380
-381 2
-381 208
-2 -208 381
-382 -208
-382 380
208 -380 382
-383 -381
-383 -382
381 382 383
-384 87
-384 -112
-87 112 384
-385 2
-385 211
-2 -211 385
-386 -211
-386 384
211 -384 386
-387 -385
-387 -386
385 386 387
-388 88
-388 -112
-88 112 388
-389 2
-389 214
-2 -214 389
-390 -214
-390 388
214 -388 390
-391 -389
-391 -390
389 390 391
-392 89
-392 -112
-89 112 392
-393 2
-393 217
-2 -217 393
-394 -217
-394 392
217 -392 394
-395 -393
-395 -394
393 394 395
-396 90
-396 -112
-90 112 396
-397 2
-397 220
-2 -220 397
-398 -220
-398 396
220 -396 398
-399 -397
-399 -398
397 398 399
-400 91
-400 -112
-91 112 400
-401 2
-401 223
-2 -223 401
-402 -223
-402 400
223 -400 402
-403 -401
-403 -402
401 402 403
-404 92
-404 -112
-92 112 404
-405 2
-405 226
-2 -226 405
-406 -226
-406 404
226 -404 406
-407 -405
-407 -406
405 406 407
-408 93
-408 -112
-93 112 408
-409 2
-409 229
-2 -229 409
-410 -229
-410 408
229 -408 410
-411 -409
-411 -410
409 410 411
-412 94
-412 -112
-94 112 412
-413 2
-413 232
-2 -232 413
-414 -232
-414 412
232 -412 414
-415 -413
-415 -414
413 414 415
-416 95
-416 -112
-95 112 416
-417 2
-417 235
-2 -235 417
-418 -235
-418 416
235 -416 418
-419 -417
-419 -418
417 418 419
-420 96
-420 -112
-96 112 420
-421 2
-421 238
-2 -238 421
-422 -238
-422 420
238 -420 422
-423 -421
-423 -422
421 422 423
-424 97
-424 -112
-97 112 424
-425 2
-425 241
-2 -241 425
-426 -241
-426 424
241 -424 426
-427 -425
-427 -426
425 426 427
-428 98
-428 -112
-98 112 428
-429 2
-429 244
-2 -244 429
-430 -244
-430 428
244 -428 430
-431 -429
-431 -430
429 430 431
-432 99
-432 -112
-99 112 432
-433 2
-433 247
-2 -247 433
-434 -247
-434 432
247 -432 434
-435 -433
-435 -434
433 434 435
-436 100
-436 -112
-100 112 436
-437 2
-437 250
-2 -250 437
-438 -250
-438 436
250 -436 438
-439 -437
-439 -438
437 438 439
-440 101
-440 -112
-101 112 440
-441 2
-441 108
-2 -108 441
-442 -108
-442 440
108 -440 442
-443 -441
-443 -442
441 442 443
-444 6
-444 102
-6 -102 444
-445 54
-445 -55
-54 55 445
-446 56
-446 -57
-56 57 446
-447 58
-447 59
-58 -59 447
-448 -60
-448 61
60 -61 448
-449 62
-449 63
-62 -63 449
-450 64
-450 65
-64 -65 450
-451 66
-451 -67
-66 67 451
-452 -68
-452 -69
68 69 452
-453 -70
-453 71
70 -71 453
-454 -72
-454 73
72 -73 454
-455 -74
-455 75
74 -75 455
-456 -76
-456 -77
76 77 456
-457 -78
-457 79
78 -79 457
-458 -80
-458 81
80 -81 458
-459 82
-459 -83
-82 83 459
-460 -84
-460 -85
84 85 460
-461 86
-461 -87
-86 87 461
-462 88
-462 -89
-88 89 462
-463 -90
-463 -91
90 91 463
-464 92
-464 -93
-92 93 464
-465 94
-465 -95
-94 95 465
-466 96
-466 97
-96 -97 466
-467 98
-467 -99
-98 99 467
-468 100
-468 101
-100 -101 468
-469 445
-469 446
-445 -446 469
-470 447
-470 448
-447 -448 470
-471 449
-471 450
-449 -450 471
-472 451
-472 452
-451 -452 472
-473 453
-473 454
-453 -454 473
-474 455
-474 456
-455 -456 474
-475 457
-475 458
-457 -458 475
-476 459
-476 460
-459 -460 476
-477 461
-477 462
-461 -462 477
-478 463
-478 464
-463 -464 478
-479 465
-479 466
-465 -466 479
-480 467
-480 468
-467 -468 480
-481 469
-481 470
-469 -470 481
-482 471
-482 472
-471 -472 482
-483 473
-483 474
-473 -474 483
-484 475
-484 476
-475 -476 484
-485 477
-485 478
-477 -478 485
-486 479
-486 480
-479 -480 486
-487 481
-487 482
-481 -482 487
-488 483
-488 484
-483 -484 488
-489 485
-489 486
-485 -486 489
-490 487
-490 488
-487 -488 490
-491 489
-491 490
-489 -490 491
-492 444
-492 491
-444 -491 492
492
